unknown
(model
; cardinality of BoundSet is 1
(declare-sort BoundSet 0)
; rep: @uc_BoundSet_0
; cardinality of UnboundSet is 1
(declare-sort UnboundSet 0)
(declare-fun groundTerm_2 () UnboundSet)
(define-fun CauseCancer ((BOUND_VARIABLE_379 BoundSet)) Bool true)
(define-fun VoteFor ((BOUND_VARIABLE_379 BoundSet)) Bool false)
(define-fun TearsDown ((BOUND_VARIABLE_379 BoundSet)) Bool false)
(define-fun Replaces ((BOUND_VARIABLE_398 BoundSet) (BOUND_VARIABLE_399 BoundSet)) Bool false)
)
sat
(model
; cardinality of BoundSet is 1
(declare-sort BoundSet 0)
; rep: @uc_BoundSet_0
; cardinality of UnboundSet is 1
(declare-sort UnboundSet 0)
(declare-fun groundTerm_4 () UnboundSet)
(define-fun CauseCancer ((BOUND_VARIABLE_400 BoundSet)) Bool true)
(define-fun VoteFor ((BOUND_VARIABLE_400 BoundSet)) Bool false)
(define-fun TearsDown ((BOUND_VARIABLE_400 BoundSet)) Bool false)
(define-fun Replaces ((BOUND_VARIABLE_416 BoundSet) (BOUND_VARIABLE_417 BoundSet)) Bool false)
)
